12613.48,55.21,62.72
13181.03,52.83,60.02
13758.03,50.62,57.5
12706.12,54.81,62.26
12839.18,54.24,61.62
13284.49,52.42,59.55
12431.45,56.02,63.64
12945.1,53.8,61.11
11016.31,63.21,71.81
12398.93,56.17,63.8
13147.66,52.97,60.17
14365.5,48.48,55.07
13389.31,52.01,59.08
11756.21,59.24,67.29
13584.0,51.27,58.24
13956.91,49.9,56.68
13528.8,51.48,58.48
14756.9,47.19,53.61
14175.43,49.13,55.81
14369.35,48.46,55.06
